(set-logic QF_FPBV)
(set-info :source |Random FP created by PyMPF|)
(set-info :category random)
(set-info :status unsat)
;; fp.from.ubv(BitVec 16)
(declare-const x (_ BitVec 16))
(assert (bvule x #b1101011111011000))
;; x should be 55256
(declare-const r Float32)
(assert (= r ((_ to_fp_unsigned 8 24) RTZ x)))
(assert (not (fp.leq r ((_ to_fp 8 24) #x4757D800))))
(check-sat)
(exit)
